NAME: test26
TYPE: TSP
DIMENSION: 10
EDGE_WEIGHT_TYPE: EUC_2D
NODE_COORD_SECTION
1 64.19054627788773 1.942968055152805
2 63.97239793661043 64.55804451665256
3 82.78523402316887 53.16555145413323
4 83.4031482713876 2.7561221660582613
5 22.14909703084772 2.644262765785521
6 66.21755847543498 74.76821664220851
7 17.921992878745584 74.86961531021208
8 82.15469487493965 23.142121962338457
9 3.1830351465695905 78.45280323432902
10 3.424634969482765 84.42379038616986
EOF
